Version identifier: 20.1.0.0 | 2020-11-10 | 9bedb6d68
Tried aggregator 2 times.
MIP Presolve eliminated 964 rows and 517 columns.
MIP Presolve modified 2428 coefficients.
Aggregator did 130 substitutions.
Reduced MIP has 1420 rows, 1123 columns, and 4711 nonzeros.
Reduced MIP has 230 binaries, 893 generals, 0 SOSs, and 0 indicators.
Presolve time = 0.01 sec. (5.62 ticks)
Found incumbent of value 3400.000000 after 0.03 sec. (11.78 ticks)
Probing fixed 30 vars, tightened 281 bounds.
Probing time = 0.00 sec. (0.88 ticks)
Tried aggregator 1 time.
Detecting symmetries...
MIP Presolve eliminated 615 rows and 30 columns.
MIP Presolve modified 111 coefficients.
Reduced MIP has 805 rows, 1093 columns, and 2716 nonzeros.
Reduced MIP has 266 binaries, 827 generals, 0 SOSs, and 0 indicators.
Presolve time = 0.01 sec. (2.90 ticks)
Probing time = 0.00 sec. (0.21 ticks)
Clique table members: 35.
MIP emphasis: balance optimality and feasibility.
MIP search method: dynamic search.
Parallel mode: deterministic, using up to 24 threads.
Root relaxation solution time = 0.01 sec. (2.79 ticks)

        Nodes                                         Cuts/
   Node  Left     Objective  IInf  Best Integer    Best Bound    ItCnt     Gap

*     0+    0                         3400.0000        0.0000           100.00%
      0     0        0.0000    34     3400.0000        0.0000      325  100.00%
      0     0        0.0000   107     3400.0000      Cuts: 89      387  100.00%
      0     0        0.0000    55     3400.0000      Cuts: 68      444  100.00%
*     0+    0                           34.0000        0.0000           100.00%
      0     0        0.0000   112       34.0000      Cuts: 39      500  100.00%
*     0+    0                           16.0000        0.0000           100.00%
      0     0        cutoff             16.0000       16.0000      500    0.00%
Elapsed time = 0.58 sec. (91.43 ticks, tree = 0.01 MB, solutions = 3)

Implied bound cuts applied:  26
Flow cuts applied:  1
Mixed integer rounding cuts applied:  6
Zero-half cuts applied:  19
Lift and project cuts applied:  5
Gomory fractional cuts applied:  9

Root node processing (before b&c):
  Real time             =    0.58 sec. (91.53 ticks)
Parallel b&c, 24 threads:
  Real time             =    0.00 sec. (0.00 ticks)
  Sync time (average)   =    0.00 sec.
  Wait time (average)   =    0.00 sec.
                          ------------
Total (root+branch&cut) =    0.58 sec. (91.53 ticks)

Solution status = Optimal
Solution LB = 16
Solution UB = 16
Runtime = 0.586422 seconds
	Command being timed: "/home/min/git_repos/CS598MEBProject/CNT-ILP/build/cnt -s 2 ./output/k8_n15/simC_c1_k8_n15_u2_s3_del02.input-right.cnp"
	User time (seconds): 8.31
	System time (seconds): 0.06
	Percent of CPU this job got: 1336%
	Elapsed (wall clock) time (h:mm:ss or m:ss): 0:00.62
	Average shared text size (kbytes): 0
	Average unshared data size (kbytes): 0
	Average stack size (kbytes): 0
	Average total size (kbytes): 0
	Maximum resident set size (kbytes): 93580
	Average resident set size (kbytes): 0
	Major (requiring I/O) page faults: 0
	Minor (reclaiming a frame) page faults: 20599
	Voluntary context switches: 5145
	Involuntary context switches: 1128
	Swaps: 0
	File system inputs: 0
	File system outputs: 16
	Socket messages sent: 0
	Socket messages received: 0
	Signals delivered: 0
	Page size (bytes): 4096
	Exit status: 0
